c description: Tseitin formula on Random 4-regular graph of 27 vertices, with odd charge
c generator: CNFgen (0.9.2)
c copyright: (C) 2012-2022 Massimo Lauria <massimo.lauria@uniroma1.it>
c url: https://massimolauria.net/cnfgen
c command line: cnfgen tseitin 27
c
p cnf 54 216
1 2 3 -4 0
1 2 -3 4 0
1 -2 3 4 0
1 -2 -3 -4 0
-1 2 3 4 0
-1 2 -3 -4 0
-1 -2 3 -4 0
-1 -2 -3 4 0
5 6 7 -8 0
5 6 -7 8 0
5 -6 7 8 0
5 -6 -7 -8 0
-5 6 7 8 0
-5 6 -7 -8 0
-5 -6 7 -8 0
-5 -6 -7 8 0
9 10 11 -12 0
9 10 -11 12 0
9 -10 11 12 0
9 -10 -11 -12 0
-9 10 11 12 0
-9 10 -11 -12 0
-9 -10 11 -12 0
-9 -10 -11 12 0
13 14 15 16 0
13 14 -15 -16 0
13 -14 15 -16 0
13 -14 -15 16 0
-13 14 15 -16 0
-13 14 -15 16 0
-13 -14 15 16 0
-13 -14 -15 -16 0
17 18 19 20 0
17 18 -19 -20 0
17 -18 19 -20 0
17 -18 -19 20 0
-17 18 19 -20 0
-17 18 -19 20 0
-17 -18 19 20 0
-17 -18 -19 -20 0
21 22 23 -24 0
21 22 -23 24 0
21 -22 23 24 0
21 -22 -23 -24 0
-21 22 23 24 0
-21 22 -23 -24 0
-21 -22 23 -24 0
-21 -22 -23 24 0
25 26 27 28 0
25 26 -27 -28 0
25 -26 27 -28 0
25 -26 -27 28 0
-25 26 27 -28 0
-25 26 -27 28 0
-25 -26 27 28 0
-25 -26 -27 -28 0
9 29 30 31 0
9 29 -30 -31 0
9 -29 30 -31 0
9 -29 -30 31 0
-9 29 30 -31 0
-9 29 -30 31 0
-9 -29 30 31 0
-9 -29 -30 -31 0
10 32 33 -34 0
10 32 -33 34 0
10 -32 33 34 0
10 -32 -33 -34 0
-10 32 33 34 0
-10 32 -33 -34 0
-10 -32 33 -34 0
-10 -32 -33 34 0
17 29 35 -36 0
17 29 -35 36 0
17 -29 35 36 0
17 -29 -35 -36 0
-17 29 35 36 0
-17 29 -35 -36 0
-17 -29 35 -36 0
-17 -29 -35 36 0
18 30 37 -38 0
18 30 -37 38 0
18 -30 37 38 0
18 -30 -37 -38 0
-18 30 37 38 0
-18 30 -37 -38 0
-18 -30 37 -38 0
-18 -30 -37 38 0
32 35 39 40 0
32 35 -39 -40 0
32 -35 39 -40 0
32 -35 -39 40 0
-32 35 39 -40 0
-32 35 -39 40 0
-32 -35 39 40 0
-32 -35 -39 -40 0
5 25 37 41 0
5 25 -37 -41 0
5 -25 37 -41 0
5 -25 -37 41 0
-5 25 37 -41 0
-5 25 -37 41 0
-5 -25 37 41 0
-5 -25 -37 -41 0
33 42 43 -44 0
33 42 -43 44 0
33 -42 43 44 0
33 -42 -43 -44 0
-33 42 43 44 0
-33 42 -43 -44 0
-33 -42 43 -44 0
-33 -42 -43 44 0
19 39 45 -46 0
19 39 -45 46 0
19 -39 45 46 0
19 -39 -45 -46 0
-19 39 45 46 0
-19 39 -45 -46 0
-19 -39 45 -46 0
-19 -39 -45 46 0
1 42 47 48 0
1 42 -47 -48 0
1 -42 47 -48 0
1 -42 -47 48 0
-1 42 47 -48 0
-1 42 -47 48 0
-1 -42 47 48 0
-1 -42 -47 -48 0
21 45 49 50 0
21 45 -49 -50 0
21 -45 49 -50 0
21 -45 -49 50 0
-21 45 49 -50 0
-21 45 -49 50 0
-21 -45 49 50 0
-21 -45 -49 -50 0
2 6 43 51 0
2 6 -43 -51 0
2 -6 43 -51 0
2 -6 -43 51 0
-2 6 43 -51 0
-2 6 -43 51 0
-2 -6 43 51 0
-2 -6 -43 -51 0
20 38 49 -52 0
20 38 -49 52 0
20 -38 49 52 0
20 -38 -49 -52 0
-20 38 49 52 0
-20 38 -49 -52 0
-20 -38 49 -52 0
-20 -38 -49 52 0
26 34 36 52 0
26 34 -36 -52 0
26 -34 36 -52 0
26 -34 -36 52 0
-26 34 36 -52 0
-26 34 -36 52 0
-26 -34 36 52 0
-26 -34 -36 -52 0
3 7 22 53 0
3 7 -22 -53 0
3 -7 22 -53 0
3 -7 -22 53 0
-3 7 22 -53 0
-3 7 -22 53 0
-3 -7 22 53 0
-3 -7 -22 -53 0
13 23 40 -50 0
13 23 -40 50 0
13 -23 40 50 0
13 -23 -40 -50 0
-13 23 40 50 0
-13 23 -40 -50 0
-13 -23 40 -50 0
-13 -23 -40 50 0
11 14 24 31 0
11 14 -24 -31 0
11 -14 24 -31 0
11 -14 -24 31 0
-11 14 24 -31 0
-11 14 -24 31 0
-11 -14 24 31 0
-11 -14 -24 -31 0
15 51 53 54 0
15 51 -53 -54 0
15 -51 53 -54 0
15 -51 -53 54 0
-15 51 53 -54 0
-15 51 -53 54 0
-15 -51 53 54 0
-15 -51 -53 -54 0
8 12 41 -47 0
8 12 -41 47 0
8 -12 41 47 0
8 -12 -41 -47 0
-8 12 41 47 0
-8 12 -41 -47 0
-8 -12 41 -47 0
-8 -12 -41 47 0
4 27 46 -54 0
4 27 -46 54 0
4 -27 46 54 0
4 -27 -46 -54 0
-4 27 46 54 0
-4 27 -46 -54 0
-4 -27 46 -54 0
-4 -27 -46 54 0
16 28 44 -48 0
16 28 -44 48 0
16 -28 44 48 0
16 -28 -44 -48 0
-16 28 44 48 0
-16 28 -44 -48 0
-16 -28 44 -48 0
-16 -28 -44 48 0
